p tw 817 1522
1 122
1 387
1 388
1 516
1 517
1 557
1 558
1 584
1 633
1 634
2 649
2 650
3 664
3 665
3 798
3 799
4 339
4 340
5 789
5 790
6 758
6 759
7 651
7 652
8 415
8 416
9 316
9 317
9 597
9 598
10 721
10 722
11 402
11 403
11 488
11 489
11 528
11 529
11 598
11 599
12 655
12 656
13 673
13 674
13 740
13 741
14 424
14 425
14 680
14 681
15 317
15 318
15 489
15 490
15 529
15 530
15 599
15 600
16 318
16 319
16 784
16 785
17 446
17 447
18 670
18 671
19 367
19 368
19 497
19 498
19 537
19 538
19 609
19 610
20 332
20 333
21 735
21 736
22 756
22 757
23 793
23 794
24 409
24 410
25 736
25 737
26 804
26 805
27 338
27 339
27 696
27 697
28 314
28 315
29 464
29 465
30 336
30 337
31 575
31 576
31 658
31 659
32 378
32 379
32 625
32 626
33 739
33 740
34 705
34 706
35 727
35 728
36 337
36 338
37 361
37 362
38 688
38 689
39 642
39 643
40 467
40 468
40 775
40 776
41 723
41 724
42 660
42 661
43 729
43 730
44 383
44 384
44 578
44 579
44 801
44 802
45 713
45 714
46 439
46 440
47 657
47 658
48 678
48 679
49 728
49 729
50 781
50 782
51 475
51 476
52 572
52 573
52 687
52 688
53 320
53 321
54 644
54 645
55 748
55 749
56 474
56 475
56 790
56 791
57 432
57 433
57 692
57 693
58 683
58 684
59 321
59 322
60 315
60 316
60 487
60 488
60 527
60 528
60 596
60 597
61 720
61 721
62 322
62 323
63 447
63 448
64 122
64 388
64 389
64 700
65 708
65 709
66 413
66 414
66 669
66 670
67 399
67 400
67 777
67 778
68 416
68 417
69 694
69 695
70 311
70 312
71 718
71 719
72 421
72 422
72 502
72 503
72 543
72 544
72 615
72 616
73 807
73 808
74 422
74 423
74 776
74 777
75 384
75 385
75 803
75 804
76 250
76 667
76 668
76 817
77 400
77 401
77 647
77 648
78 656
78 657
79 750
79 751
80 743
80 744
81 372
81 373
82 478
82 479
83 366
83 367
84 411
84 412
85 707
85 708
86 438
86 439
87 425
87 426
87 618
87 619
88 434
88 435
89 674
89 675
89 741
89 742
89 812
89 813
90 215
90 766
90 805
90 806
91 455
91 456
92 753
92 754
93 350
93 351
94 267
94 428
94 429
94 519
94 623
94 624
95 427
95 428
95 746
95 747
96 323
96 324
97 751
97 752
98 686
98 687
99 435
99 436
99 796
99 797
100 403
100 404
100 725
100 726
100 810
100 811
101 448
101 449
101 595
101 596
102 477
102 478
102 800
102 801
103 472
103 473
103 782
103 783
104 786
104 787
105 374
105 375
105 504
105 505
105 545
105 546
105 617
105 618
106 709
106 710
107 665
107 666
108 213
108 452
108 453
108 702
109 408
109 409
110 646
110 647
111 358
111 359
111 491
111 492
111 531
111 532
111 602
111 603
112 450
112 451
112 650
112 651
113 704
113 705
114 791
114 792
115 394
115 395
116 737
116 738
117 684
117 685
118 726
118 727
119 445
119 446
119 560
119 561
119 639
119 640
120 442
120 443
120 580
120 581
120 698
120 699
121 566
121 567
121 682
121 683
122 145
122 389
122 390
122 517
122 558
122 584
122 635
122 700
123 437
123 438
123 576
123 577
123 697
123 698
124 433
124 434
124 511
124 512
124 552
124 553
124 629
124 630
125 468
125 469
125 681
125 682
126 571
126 572
126 685
126 686
127 761
127 762
128 451
128 452
129 579
129 580
130 666
130 667
131 346
131 347
132 396
132 397
132 483
132 484
132 523
132 524
132 589
132 590
133 365
133 366
133 799
133 800
134 787
134 788
135 309
135 806
136 407
136 408
137 397
137 398
137 485
137 486
137 525
137 526
137 591
137 592
138 759
138 760
139 465
139 466
140 719
140 720
141 732
141 733
142 371
142 372
143 780
143 781
144 351
144 352
145 391
145 392
145 517
145 558
145 635
146 360
146 361
147 343
147 344
148 744
148 745
149 764
149 765
150 755
150 756
151 390
151 391
152 466
152 467
152 813
152 814
153 423
153 424
154 763
154 764
155 648
155 649
156 767
156 768
157 814
157 815
158 715
158 716
159 716
159 717
160 324
160 325
160 494
160 495
160 534
160 535
160 604
160 605
160 733
160 734
161 412
161 413
162 559
162 560
163 778
163 779
164 444
164 445
165 353
165 354
166 458
166 459
166 605
166 606
167 326
167 327
168 354
168 355
168 593
168 594
169 749
169 750
170 310
170 311
170 480
170 481
170 520
170 521
170 585
170 586
171 469
171 470
172 760
172 761
173 430
173 431
173 691
173 692
174 357
174 358
175 567
175 568
176 811
176 812
177 342
177 343
177 513
177 514
177 554
177 555
177 631
177 632
178 738
178 739
179 722
179 723
180 352
180 353
180 486
180 487
180 526
180 527
180 592
180 593
181 672
181 673
182 765
182 766
183 426
183 427
183 506
183 507
183 547
183 548
183 620
183 621
184 577
184 578
185 689
185 690
186 375
186 376
187 563
187 564
188 398
188 399
189 313
189 314
189 482
189 483
189 522
189 523
189 588
189 589
190 640
190 641
191 401
191 402
192 327
192 328
192 501
192 502
192 541
192 542
192 613
192 614
193 652
193 653
194 768
194 769
195 661
195 662
196 565
196 566
197 362
197 363
198 328
198 329
198 614
198 615
199 312
199 313
199 481
199 482
199 521
199 522
199 587
199 588
200 331
200 332
200 503
200 504
200 544
200 545
200 616
200 617
201 711
201 712
202 386
202 387
202 514
202 515
202 555
202 556
202 632
202 633
203 470
203 471
203 570
203 571
204 638
204 639
205 355
205 356
206 714
206 715
206 771
206 772
207 731
207 732
208 573
208 574
208 654
208 655
209 762
209 763
210 392
210 393
210 706
210 707
211 645
211 646
212 382
212 383
212 512
212 513
212 553
212 554
212 630
212 631
213 702
214 417
214 418
215 766
216 414
216 415
216 499
216 500
216 539
216 540
216 611
216 612
217 333
217 334
217 508
217 509
217 549
217 550
217 621
217 622
218 335
218 336
218 626
218 627
219 459
219 460
219 495
219 496
219 535
219 536
219 607
219 608
220 779
220 780
221 410
221 411
222 440
222 441
223 663
223 664
224 695
224 696
225 364
225 365
226 643
226 644
227 349
227 350
227 772
227 773
228 754
228 755
229 356
229 357
229 653
229 654
230 369
230 370
231 808
231 809
232 710
232 711
233 747
233 748
234 373
234 374
234 542
234 543
234 677
234 678
235 242
235 479
236 581
236 582
237 463
237 464
238 404
238 405
238 490
238 491
238 530
238 531
238 600
238 601
239 340
239 341
240 785
240 786
241 347
241 348
242 479
242 515
242 516
242 556
242 557
242 634
242 635
243 319
243 320
243 492
243 493
243 532
243 533
243 601
243 602
244 380
244 381
244 693
244 694
245 730
245 731
245 795
245 796
246 393
246 394
246 586
246 587
246 636
246 637
247 699
247 700
248 418
248 419
248 562
248 563
248 675
248 676
249 329
249 330
250 817
251 406
251 407
251 792
251 793
252 690
252 691
253 263
253 568
253 569
253 703
254 788
254 789
255 359
255 360
256 701
256 702
257 419
257 420
258 460
258 461
258 496
258 497
258 536
258 537
258 608
258 609
259 345
259 346
260 453
260 454
260 493
260 494
260 533
260 534
260 603
260 604
261 745
261 746
262 443
262 444
262 769
262 770
263 569
263 570
263 703
264 344
264 345
265 583
265 584
266 462
266 463
266 500
266 501
266 540
266 541
266 612
266 613
267 449
267 450
267 519
267 594
267 595
268 773
268 774
269 377
269 378
269 624
269 625
270 456
270 457
270 802
270 803
271 370
271 371
271 671
271 672
272 348
272 349
272 484
272 485
272 524
272 525
272 590
272 591
273 441
273 442
274 476
274 477
274 794
274 795
275 752
275 753
276 368
276 369
276 668
276 669
277 574
277 575
278 454
278 455
278 659
278 660
279 429
279 430
280 757
280 758
281 334
281 335
281 783
281 784
282 405
282 406
283 457
283 458
283 606
283 607
283 734
283 735
283 815
283 816
284 461
284 462
284 498
284 499
284 538
284 539
284 610
284 611
285 381
285 382
285 797
285 798
286 724
286 725
287 431
287 432
287 509
287 510
287 550
287 551
287 627
287 628
288 385
288 386
289 395
289 396
290 770
290 771
291 662
291 663
292 742
292 743
292 774
292 775
293 471
293 472
293 507
293 508
293 548
293 549
293 622
293 623
294 809
294 810
295 420
295 421
296 376
296 377
296 505
296 506
296 546
296 547
296 619
296 620
297 379
297 380
298 561
298 562
298 641
298 642
299 717
299 718
300 363
300 364
301 330
301 331
301 564
301 565
301 679
301 680
302 436
302 437
303 637
303 638
304 325
304 326
305 473
305 474
305 510
305 511
305 518
305 519
305 551
305 552
305 628
305 629
306 341
306 342
306 582
306 583
306 816
306 817
307 712
307 713
308 676
308 677
309 806
310 311
311 312
312 313
313 314
314 315
315 316
316 317
317 318
318 319
319 320
320 321
321 322
322 323
323 324
324 325
325 326
326 327
327 328
328 329
329 330
330 331
331 332
332 333
333 334
334 335
335 336
336 337
337 338
338 339
339 340
340 341
341 342
342 343
343 344
344 345
345 346
346 347
347 348
348 349
349 350
350 351
351 352
352 353
353 354
354 355
355 356
356 357
357 358
358 359
359 360
360 361
361 362
362 363
363 364
364 365
365 366
366 367
367 368
368 369
369 370
370 371
371 372
372 373
373 374
374 375
375 376
376 377
377 378
378 379
379 380
380 381
381 382
382 383
383 384
384 385
385 386
386 387
387 388
388 389
389 390
390 391
391 392
392 393
393 394
394 395
395 396
396 397
397 398
398 399
399 400
400 401
401 402
402 403
403 404
404 405
405 406
406 407
407 408
408 409
409 410
410 411
411 412
412 413
413 414
414 415
415 416
416 417
417 418
418 419
419 420
420 421
421 422
422 423
423 424
424 425
425 426
426 427
427 428
428 429
429 430
430 431
431 432
432 433
433 434
434 435
435 436
436 437
437 438
438 439
439 440
440 441
441 442
442 443
443 444
444 445
445 446
446 447
447 448
448 449
449 450
450 451
451 452
452 453
453 454
454 455
455 456
456 457
457 458
458 459
459 460
460 461
461 462
462 463
463 464
464 465
465 466
466 467
467 468
468 469
469 470
470 471
471 472
472 473
473 474
474 475
475 476
476 477
477 478
478 479
480 481
481 482
482 483
483 484
484 485
485 486
486 487
487 488
488 489
489 490
490 491
491 492
492 493
493 494
494 495
495 496
496 497
497 498
498 499
499 500
500 501
501 502
502 503
503 504
504 505
505 506
506 507
507 508
508 509
509 510
510 511
511 512
512 513
513 514
514 515
515 516
516 517
518 519
520 521
521 522
522 523
523 524
524 525
525 526
526 527
527 528
528 529
529 530
530 531
531 532
532 533
533 534
534 535
535 536
536 537
537 538
538 539
539 540
540 541
541 542
542 543
543 544
544 545
545 546
546 547
547 548
548 549
549 550
550 551
551 552
552 553
553 554
554 555
555 556
556 557
557 558
559 560
560 561
561 562
562 563
563 564
564 565
565 566
566 567
567 568
568 569
569 570
570 571
571 572
572 573
573 574
574 575
575 576
576 577
577 578
578 579
579 580
580 581
581 582
582 583
583 584
585 586
586 587
587 588
588 589
589 590
590 591
591 592
592 593
593 594
594 595
595 596
596 597
597 598
598 599
599 600
600 601
601 602
602 603
603 604
604 605
605 606
606 607
607 608
608 609
609 610
610 611
611 612
612 613
613 614
614 615
615 616
616 617
617 618
618 619
619 620
620 621
621 622
622 623
623 624
624 625
625 626
626 627
627 628
628 629
629 630
630 631
631 632
632 633
633 634
634 635
636 637
637 638
638 639
639 640
640 641
641 642
642 643
643 644
644 645
645 646
646 647
647 648
648 649
649 650
650 651
651 652
652 653
653 654
654 655
655 656
656 657
657 658
658 659
659 660
660 661
661 662
662 663
663 664
664 665
665 666
666 667
667 668
668 669
669 670
670 671
671 672
672 673
673 674
674 675
675 676
676 677
677 678
678 679
679 680
680 681
681 682
682 683
683 684
684 685
685 686
686 687
687 688
688 689
689 690
690 691
691 692
692 693
693 694
694 695
695 696
696 697
697 698
698 699
699 700
701 702
704 705
705 706
706 707
707 708
708 709
709 710
710 711
711 712
712 713
713 714
714 715
715 716
716 717
717 718
718 719
719 720
720 721
721 722
722 723
723 724
724 725
725 726
726 727
727 728
728 729
729 730
730 731
731 732
732 733
733 734
734 735
735 736
736 737
737 738
738 739
739 740
740 741
741 742
742 743
743 744
744 745
745 746
746 747
747 748
748 749
749 750
750 751
751 752
752 753
753 754
754 755
755 756
756 757
757 758
758 759
759 760
760 761
761 762
762 763
763 764
764 765
765 766
767 768
768 769
769 770
770 771
771 772
772 773
773 774
774 775
775 776
776 777
777 778
778 779
779 780
780 781
781 782
782 783
783 784
784 785
785 786
786 787
787 788
788 789
789 790
790 791
791 792
792 793
793 794
794 795
795 796
796 797
797 798
798 799
799 800
800 801
801 802
802 803
803 804
804 805
805 806
807 808
808 809
809 810
810 811
811 812
812 813
813 814
814 815
815 816
816 817
